<instance format="XCSP3" type="COP">
  <variables>
    <array id="x" note="x[i] is the successor node of node i (in the cycle where i belongs)" size="[20]"> 0..19 </array>
    <array id="y" note="y[i] is the cycle (index) where the node i belongs" size="[20]"> 0..19 </array>
    <array id="aux_gb" note="aux_gb[i] is the ith auxiliary variable having been automatically introduced" size="[20]">
      <domain for="aux_gb[0]"> -1..53 </domain>
      <domain for="aux_gb[1]"> -1..57 </domain>
      <domain for="aux_gb[2]"> -1..42 </domain>
      <domain for="aux_gb[3]"> -1..58 </domain>
      <domain for="aux_gb[4]"> -1..18 </domain>
      <domain for="aux_gb[5]"> -1..92 </domain>
      <domain for="aux_gb[6]"> -1..95 </domain>
      <domain for="aux_gb[7] aux_gb[11] aux_gb[16]"> -1..100 </domain>
      <domain for="aux_gb[8] aux_gb[13..14]"> -1..94 </domain>
      <domain for="aux_gb[9]"> -1..93 </domain>
      <domain for="aux_gb[10]"> -1..63 </domain>
      <domain for="aux_gb[12]"> -1..80 </domain>
      <domain for="aux_gb[15]"> -1..71 </domain>
      <domain for="aux_gb[17]"> -1..61 </domain>
      <domain for="aux_gb[18]"> -1..82 </domain>
      <domain for="aux_gb[19]"> -1..36 </domain>
    </array>
  </variables>
  <constraints>
    <allDifferent> x[] </allDifferent>
    <group note="ensuring correct cycles">
      <element>
        <list> y[] </list>
        <index> %0 </index>
        <value> %1 </value>
      </element>
      <args> x[0] y[0] </args>
      <args> x[1] y[1] </args>
      <args> x[2] y[2] </args>
      <args> x[3] y[3] </args>
      <args> x[4] y[4] </args>
      <args> x[5] y[5] </args>
      <args> x[6] y[6] </args>
      <args> x[7] y[7] </args>
      <args> x[8] y[8] </args>
      <args> x[9] y[9] </args>
      <args> x[10] y[10] </args>
      <args> x[11] y[11] </args>
      <args> x[12] y[12] </args>
      <args> x[13] y[13] </args>
      <args> x[14] y[14] </args>
      <args> x[15] y[15] </args>
      <args> x[16] y[16] </args>
      <args> x[17] y[17] </args>
      <args> x[18] y[18] </args>
      <args> x[19] y[19] </args>
    </group>
    <group note="disabling infeasible edges">
      <intension> ne(%0,%1) </intension>
      <args> x[0] 1 </args>
      <args> x[0] 2 </args>
      <args> x[0] 3 </args>
      <args> x[0] 4 </args>
      <args> x[0] 5 </args>
      <args> x[0] 6 </args>
      <args> x[0] 8 </args>
      <args> x[0] 10 </args>
      <args> x[0] 11 </args>
      <args> x[0] 12 </args>
      <args> x[0] 14 </args>
      <args> x[0] 15 </args>
      <args> x[0] 16 </args>
      <args> x[0] 17 </args>
      <args> x[0] 18 </args>
      <args> x[0] 19 </args>
      <args> x[1] 0 </args>
      <args> x[1] 4 </args>
      <args> x[1] 6 </args>
      <args> x[1] 8 </args>
      <args> x[1] 9 </args>
      <args> x[1] 11 </args>
      <args> x[1] 12 </args>
      <args> x[1] 13 </args>
      <args> x[1] 16 </args>
      <args> x[1] 17 </args>
      <args> x[1] 18 </args>
      <args> x[1] 19 </args>
      <args> x[2] 0 </args>
      <args> x[2] 1 </args>
      <args> x[2] 3 </args>
      <args> x[2] 4 </args>
      <args> x[2] 5 </args>
      <args> x[2] 6 </args>
      <args> x[2] 7 </args>
      <args> x[2] 8 </args>
      <args> x[2] 9 </args>
      <args> x[2] 10 </args>
      <args> x[2] 11 </args>
      <args> x[2] 13 </args>
      <args> x[2] 14 </args>
      <args> x[2] 15 </args>
      <args> x[2] 16 </args>
      <args> x[2] 17 </args>
      <args> x[2] 18 </args>
      <args> x[2] 19 </args>
      <args> x[3] 0 </args>
      <args> x[3] 1 </args>
      <args> x[3] 2 </args>
      <args> x[3] 4 </args>
      <args> x[3] 5 </args>
      <args> x[3] 6 </args>
      <args> x[3] 10 </args>
      <args> x[3] 11 </args>
      <args> x[3] 12 </args>
      <args> x[3] 13 </args>
      <args> x[3] 14 </args>
      <args> x[3] 15 </args>
      <args> x[3] 16 </args>
      <args> x[3] 17 </args>
      <args> x[3] 18 </args>
      <args> x[3] 19 </args>
      <args> x[4] 0 </args>
      <args> x[4] 1 </args>
      <args> x[4] 2 </args>
      <args> x[4] 5 </args>
      <args> x[4] 6 </args>
      <args> x[4] 7 </args>
      <args> x[4] 8 </args>
      <args> x[4] 9 </args>
      <args> x[4] 10 </args>
      <args> x[4] 11 </args>
      <args> x[4] 12 </args>
      <args> x[4] 13 </args>
      <args> x[4] 14 </args>
      <args> x[4] 15 </args>
      <args> x[4] 16 </args>
      <args> x[4] 17 </args>
      <args> x[4] 18 </args>
      <args> x[4] 19 </args>
      <args> x[5] 0 </args>
      <args> x[5] 2 </args>
      <args> x[5] 4 </args>
      <args> x[5] 6 </args>
      <args> x[5] 7 </args>
      <args> x[5] 8 </args>
      <args> x[5] 9 </args>
      <args> x[5] 10 </args>
      <args> x[5] 11 </args>
      <args> x[5] 12 </args>
      <args> x[5] 14 </args>
      <args> x[5] 17 </args>
      <args> x[5] 18 </args>
      <args> x[6] 0 </args>
      <args> x[6] 1 </args>
      <args> x[6] 3 </args>
      <args> x[6] 4 </args>
      <args> x[6] 5 </args>
      <args> x[6] 8 </args>
      <args> x[6] 9 </args>
      <args> x[6] 10 </args>
      <args> x[6] 15 </args>
      <args> x[6] 16 </args>
      <args> x[6] 17 </args>
      <args> x[6] 18 </args>
      <args> x[6] 19 </args>
      <args> x[7] 0 </args>
      <args> x[7] 1 </args>
      <args> x[7] 2 </args>
      <args> x[7] 3 </args>
      <args> x[7] 4 </args>
      <args> x[7] 5 </args>
      <args> x[7] 6 </args>
      <args> x[7] 9 </args>
      <args> x[7] 10 </args>
      <args> x[7] 11 </args>
      <args> x[7] 16 </args>
      <args> x[7] 17 </args>
      <args> x[7] 18 </args>
      <args> x[7] 19 </args>
      <args> x[8] 0 </args>
      <args> x[8] 1 </args>
      <args> x[8] 2 </args>
      <args> x[8] 6 </args>
      <args> x[8] 9 </args>
      <args> x[8] 12 </args>
      <args> x[8] 13 </args>
      <args> x[8] 14 </args>
      <args> x[8] 15 </args>
      <args> x[8] 16 </args>
      <args> x[8] 17 </args>
      <args> x[8] 18 </args>
      <args> x[8] 19 </args>
      <args> x[9] 1 </args>
      <args> x[9] 2 </args>
      <args> x[9] 3 </args>
      <args> x[9] 4 </args>
      <args> x[9] 5 </args>
      <args> x[9] 12 </args>
      <args> x[9] 13 </args>
      <args> x[9] 14 </args>
      <args> x[9] 15 </args>
      <args> x[9] 16 </args>
      <args> x[9] 17 </args>
      <args> x[9] 18 </args>
      <args> x[10] 0 </args>
      <args> x[10] 1 </args>
      <args> x[10] 3 </args>
      <args> x[10] 5 </args>
      <args> x[10] 6 </args>
      <args> x[10] 7 </args>
      <args> x[10] 8 </args>
      <args> x[10] 9 </args>
      <args> x[10] 11 </args>
      <args> x[10] 12 </args>
      <args> x[10] 15 </args>
      <args> x[10] 16 </args>
      <args> x[10] 17 </args>
      <args> x[10] 19 </args>
      <args> x[11] 1 </args>
      <args> x[11] 2 </args>
      <args> x[11] 4 </args>
      <args> x[11] 6 </args>
      <args> x[11] 7 </args>
      <args> x[11] 8 </args>
      <args> x[11] 10 </args>
      <args> x[11] 12 </args>
      <args> x[11] 14 </args>
      <args> x[11] 15 </args>
      <args> x[11] 17 </args>
      <args> x[11] 18 </args>
      <args> x[12] 2 </args>
      <args> x[12] 3 </args>
      <args> x[12] 4 </args>
      <args> x[12] 5 </args>
      <args> x[12] 6 </args>
      <args> x[12] 7 </args>
      <args> x[12] 9 </args>
      <args> x[12] 10 </args>
      <args> x[12] 11 </args>
      <args> x[12] 13 </args>
      <args> x[12] 14 </args>
      <args> x[12] 16 </args>
      <args> x[12] 17 </args>
      <args> x[12] 19 </args>
      <args> x[13] 0 </args>
      <args> x[13] 1 </args>
      <args> x[13] 2 </args>
      <args> x[13] 3 </args>
      <args> x[13] 4 </args>
      <args> x[13] 6 </args>
      <args> x[13] 8 </args>
      <args> x[13] 10 </args>
      <args> x[13] 11 </args>
      <args> x[13] 14 </args>
      <args> x[13] 16 </args>
      <args> x[13] 17 </args>
      <args> x[13] 18 </args>
      <args> x[13] 19 </args>
      <args> x[14] 0 </args>
      <args> x[14] 1 </args>
      <args> x[14] 3 </args>
      <args> x[14] 4 </args>
      <args> x[14] 5 </args>
      <args> x[14] 6 </args>
      <args> x[14] 7 </args>
      <args> x[14] 8 </args>
      <args> x[14] 9 </args>
      <args> x[14] 10 </args>
      <args> x[14] 11 </args>
      <args> x[14] 12 </args>
      <args> x[14] 16 </args>
      <args> x[14] 17 </args>
      <args> x[15] 0 </args>
      <args> x[15] 1 </args>
      <args> x[15] 2 </args>
      <args> x[15] 3 </args>
      <args> x[15] 4 </args>
      <args> x[15] 6 </args>
      <args> x[15] 7 </args>
      <args> x[15] 9 </args>
      <args> x[15] 10 </args>
      <args> x[15] 11 </args>
      <args> x[15] 12 </args>
      <args> x[15] 13 </args>
      <args> x[15] 14 </args>
      <args> x[15] 16 </args>
      <args> x[15] 18 </args>
      <args> x[15] 19 </args>
      <args> x[16] 2 </args>
      <args> x[16] 4 </args>
      <args> x[16] 5 </args>
      <args> x[16] 7 </args>
      <args> x[16] 12 </args>
      <args> x[16] 13 </args>
      <args> x[16] 14 </args>
      <args> x[16] 15 </args>
      <args> x[16] 18 </args>
      <args> x[17] 0 </args>
      <args> x[17] 1 </args>
      <args> x[17] 2 </args>
      <args> x[17] 3 </args>
      <args> x[17] 4 </args>
      <args> x[17] 5 </args>
      <args> x[17] 6 </args>
      <args> x[17] 9 </args>
      <args> x[17] 10 </args>
      <args> x[17] 12 </args>
      <args> x[17] 13 </args>
      <args> x[17] 14 </args>
      <args> x[17] 15 </args>
      <args> x[17] 18 </args>
      <args> x[17] 19 </args>
      <args> x[18] 4 </args>
      <args> x[18] 6 </args>
      <args> x[18] 7 </args>
      <args> x[18] 9 </args>
      <args> x[18] 10 </args>
      <args> x[18] 11 </args>
      <args> x[18] 13 </args>
      <args> x[18] 14 </args>
      <args> x[18] 16 </args>
      <args> x[18] 17 </args>
      <args> x[18] 19 </args>
      <args> x[19] 0 </args>
      <args> x[19] 1 </args>
      <args> x[19] 3 </args>
      <args> x[19] 4 </args>
      <args> x[19] 5 </args>
      <args> x[19] 6 </args>
      <args> x[19] 7 </args>
      <args> x[19] 9 </args>
      <args> x[19] 10 </args>
      <args> x[19] 11 </args>
      <args> x[19] 13 </args>
      <args> x[19] 14 </args>
      <args> x[19] 15 </args>
      <args> x[19] 16 </args>
      <args> x[19] 17 </args>
      <args> x[19] 18 </args>
    </group>
    <binPacking note="each cycle has k as maximum length">
      <list> y[] </list>
      <sizes> 1x20 </sizes>
      <condition> (le,3) </condition>
    </binPacking>
    <precedence class="symmetry-breaking"> y[] </precedence>
    <element>
      <list> 0 -1 -1 -1 -1 -1 -1 37 -1 11 -1 -1 -1 53 -1 -1 -1 -1 -1 -1 </list>
      <index> x[0] </index>
      <value> aux_gb[0] </value>
    </element>
    <element>
      <list> -1 0 57 23 -1 1 -1 23 -1 -1 19 -1 -1 -1 2 29 -1 -1 -1 -1 </list>
      <index> x[1] </index>
      <value> aux_gb[1] </value>
    </element>
    <element>
      <list> -1 -1 0 -1 -1 -1 -1 -1 -1 -1 -1 -1 42 -1 -1 -1 -1 -1 -1 -1 </list>
      <index> x[2] </index>
      <value> aux_gb[2] </value>
    </element>
    <element>
      <list> -1 -1 -1 0 -1 -1 -1 58 39 47 -1 -1 -1 -1 -1 -1 -1 -1 -1 -1 </list>
      <index> x[3] </index>
      <value> aux_gb[3] </value>
    </element>
    <element>
      <list> -1 -1 -1 18 0 -1 -1 -1 -1 -1 -1 -1 -1 -1 -1 -1 -1 -1 -1 -1 </list>
      <index> x[4] </index>
      <value> aux_gb[4] </value>
    </element>
    <element>
      <list> -1 89 -1 58 -1 0 -1 -1 -1 -1 -1 -1 -1 92 -1 71 56 -1 -1 60 </list>
      <index> x[5] </index>
      <value> aux_gb[5] </value>
    </element>
    <element>
      <list> -1 -1 35 -1 -1 -1 0 5 -1 -1 -1 87 61 95 63 -1 -1 -1 -1 -1 </list>
      <index> x[6] </index>
      <value> aux_gb[6] </value>
    </element>
    <element>
      <list> -1 -1 -1 -1 -1 -1 -1 0 57 -1 -1 -1 67 91 70 100 -1 -1 -1 -1 </list>
      <index> x[7] </index>
      <value> aux_gb[7] </value>
    </element>
    <element>
      <list> -1 -1 -1 62 94 21 -1 63 0 -1 45 72 -1 -1 -1 -1 -1 -1 -1 -1 </list>
      <index> x[8] </index>
      <value> aux_gb[8] </value>
    </element>
    <element>
      <list> 10 -1 -1 -1 -1 -1 77 44 93 0 43 10 -1 -1 -1 -1 -1 -1 -1 57 </list>
      <index> x[9] </index>
      <value> aux_gb[9] </value>
    </element>
    <element>
      <list> -1 -1 31 -1 24 -1 -1 -1 -1 -1 0 -1 -1 41 63 -1 -1 -1 14 -1 </list>
      <index> x[10] </index>
      <value> aux_gb[10] </value>
    </element>
    <element>
      <list> 13 -1 -1 56 -1 100 -1 -1 -1 44 -1 0 -1 79 -1 -1 23 -1 -1 46 </list>
      <index> x[11] </index>
      <value> aux_gb[11] </value>
    </element>
    <element>
      <list> 49 80 -1 -1 -1 -1 -1 -1 65 -1 -1 -1 0 -1 -1 37 -1 -1 51 -1 </list>
      <index> x[12] </index>
      <value> aux_gb[12] </value>
    </element>
    <element>
      <list> -1 -1 -1 -1 -1 94 -1 29 -1 23 -1 -1 63 0 -1 4 -1 -1 -1 -1 </list>
      <index> x[13] </index>
      <value> aux_gb[13] </value>
    </element>
    <element>
      <list> -1 -1 5 -1 -1 -1 -1 -1 -1 -1 -1 -1 -1 94 0 2 -1 -1 6 21 </list>
      <index> x[14] </index>
      <value> aux_gb[14] </value>
    </element>
    <element>
      <list> -1 -1 -1 -1 -1 61 -1 -1 57 -1 -1 -1 -1 -1 -1 0 -1 71 -1 -1 </list>
      <index> x[15] </index>
      <value> aux_gb[15] </value>
    </element>
    <element>
      <list> 21 13 -1 84 -1 -1 34 -1 97 35 3 97 -1 -1 -1 -1 0 84 -1 100 </list>
      <index> x[16] </index>
      <value> aux_gb[16] </value>
    </element>
    <element>
      <list> -1 -1 -1 -1 -1 -1 -1 19 16 -1 -1 40 -1 -1 -1 -1 61 0 -1 -1 </list>
      <index> x[17] </index>
      <value> aux_gb[17] </value>
    </element>
    <element>
      <list> 61 82 8 2 -1 25 -1 -1 53 -1 -1 -1 9 -1 -1 31 -1 -1 0 -1 </list>
      <index> x[18] </index>
      <value> aux_gb[18] </value>
    </element>
    <element>
      <list> -1 -1 27 -1 -1 -1 -1 -1 36 -1 -1 -1 10 -1 -1 -1 -1 -1 -1 0 </list>
      <index> x[19] </index>
      <value> aux_gb[19] </value>
    </element>
  </constraints>
  <objectives>
    <maximize note="maximizing the sum of arc weights of selected cycles" type="sum"> aux_gb[] </maximize>
  </objectives>
</instance>
